p cnf 106 352
43 57 64 0
61 66 0
47 75 76 0
45 68 77 0
63 85 0
30 52 94 101 0
39 105 0
58 67 0
37 54 59 71 0
33 51 0
28 92 0
83 96 0
34 86 87 0
53 88 0
79 89 0
74 91 0
31 41 55 0
84 93 97 0
82 98 0
36 42 0
81 100 102 0
49 95 103 0
46 69 106 0
26 44 0
32 40 70 0
23 24 25 0
21 22 0
19 35 0
-59 -96 0
-17 -59 0
-17 -96 0
-48 -86 0
-74 -86 0
-48 -74 0
-25 -70 0
-19 -70 0
-19 -25 0
-59 -86 0
-59 -70 0
-70 -86 0
-48 -96 0
-25 -96 0
-25 -48 0
-17 -74 0
-17 -19 0
-19 -74 0
-43 -66 0
-43 -99 0
-43 -75 0
-43 -77 0
-66 -99 0
-66 -75 0
-66 -77 0
-75 -99 0
-77 -99 0
-75 -77 0
-15 -85 0
-85 -101 0
-67 -85 0
-73 -85 0
-15 -101 0
-15 -67 0
-15 -73 0
-67 -101 0
-73 -101 0
-67 -73 0
-33 -37 0
-28 -37 0
-13 -37 0
-20 -37 0
-28 -33 0
-13 -33 0
-20 -33 0
-13 -28 0
-20 -28 0
-13 -20 0
-56 -81 0
-56 -95 0
-12 -56 0
-44 -56 0
-81 -95 0
-12 -81 0
-44 -81 0
-12 -95 0
-44 -95 0
-12 -44 0
-11 -40 0
-10 -40 0
-22 -40 0
-35 -40 0
-10 -11 0
-11 -22 0
-11 -35 0
-10 -22 0
-10 -35 0
-22 -35 0
-43 -85 0
-37 -43 0
-43 -56 0
-40 -43 0
-37 -85 0
-56 -85 0
-40 -85 0
-37 -56 0
-37 -40 0
-40 -56 0
-15 -66 0
-33 -66 0
-66 -81 0
-11 -66 0
-15 -33 0
-15 -81 0
-11 -15 0
-33 -81 0
-11 -33 0
-11 -81 0
-99 -101 0
-28 -99 0
-95 -99 0
-10 -99 0
-28 -101 0
-95 -101 0
-10 -101 0
-28 -95 0
-10 -28 0
-10 -95 0
-67 -75 0
-13 -75 0
-12 -75 0
-22 -75 0
-13 -67 0
-12 -67 0
-22 -67 0
-12 -13 0
-13 -22 0
-12 -22 0
-73 -77 0
-20 -77 0
-44 -77 0
-35 -77 0
-20 -73 0
-44 -73 0
-35 -73 0
-20 -44 0
-20 -35 0
-35 -44 0
-18 -71 0
-36 -41 0
-41 -71 0
-18 -36 0
-80 -94 0
-39 -80 0
-39 -94 0
-53 -79 0
-9 -53 0
-9 -79 0
-7 -8 0
-8 -24 0
-7 -24 0
-53 -80 0
-8 -80 0
-8 -53 0
-79 -94 0
-7 -94 0
-7 -79 0
-9 -39 0
-24 -39 0
-9 -24 0
-38 -57 0
-45 -57 0
-38 -45 0
-6 -34 0
-34 -91 0
-6 -91 0
-62 -106 0
-26 -62 0
-26 -106 0
-34 -57 0
-57 -62 0
-34 -62 0
-6 -38 0
-38 -106 0
-6 -106 0
-45 -91 0
-26 -45 0
-26 -91 0
-47 -78 0
-68 -78 0
-47 -68 0
-52 -58 0
-52 -90 0
-58 -90 0
-5 -84 0
-42 -84 0
-5 -42 0
-52 -78 0
-78 -84 0
-52 -84 0
-47 -58 0
-5 -47 0
-5 -58 0
-68 -90 0
-42 -68 0
-42 -90 0
-60 -63 0
-30 -63 0
-63 -105 0
-30 -60 0
-60 -105 0
-30 -105 0
-87 -88 0
-87 -89 0
-4 -87 0
-88 -89 0
-4 -88 0
-4 -89 0
-50 -55 0
-55 -93 0
-55 -82 0
-50 -93 0
-50 -82 0
-82 -93 0
-65 -100 0
-65 -103 0
-46 -65 0
-100 -103 0
-46 -100 0
-46 -103 0
-63 -87 0
-55 -63 0
-63 -65 0
-55 -87 0
-65 -87 0
-55 -65 0
-60 -88 0
-50 -60 0
-60 -100 0
-50 -88 0
-88 -100 0
-50 -100 0
-30 -89 0
-30 -93 0
-30 -103 0
-89 -93 0
-89 -103 0
-93 -103 0
-4 -105 0
-82 -105 0
-46 -105 0
-4 -82 0
-4 -46 0
-46 -82 0
-61 -64 0
-29 -64 0
-64 -104 0
-64 -76 0
-29 -61 0
-61 -104 0
-61 -76 0
-29 -104 0
-29 -76 0
-76 -104 0
-51 -54 0
-54 -92 0
-54 -83 0
-3 -54 0
-51 -92 0
-51 -83 0
-3 -51 0
-83 -92 0
-3 -92 0
-3 -83 0
-2 -31 0
-31 -97 0
-31 -98 0
-16 -31 0
-2 -97 0
-2 -98 0
-2 -16 0
-97 -98 0
-16 -97 0
-16 -98 0
-14 -102 0
-14 -49 0
-14 -69 0
-14 -72 0
-49 -102 0
-69 -102 0
-72 -102 0
-49 -69 0
-49 -72 0
-69 -72 0
-27 -32 0
-1 -32 0
-23 -32 0
-21 -32 0
-1 -27 0
-23 -27 0
-21 -27 0
-1 -23 0
-1 -21 0
-21 -23 0
-54 -64 0
-31 -64 0
-14 -64 0
-32 -64 0
-31 -54 0
-14 -54 0
-32 -54 0
-14 -31 0
-31 -32 0
-14 -32 0
-51 -61 0
-2 -61 0
-61 -102 0
-27 -61 0
-2 -51 0
-51 -102 0
-27 -51 0
-2 -102 0
-2 -27 0
-27 -102 0
-29 -92 0
-29 -97 0
-29 -49 0
-1 -29 0
-92 -97 0
-49 -92 0
-1 -92 0
-49 -97 0
-1 -97 0
-1 -49 0
-83 -104 0
-98 -104 0
-69 -104 0
-23 -104 0
-83 -98 0
-69 -83 0
-23 -83 0
-69 -98 0
-23 -98 0
-23 -69 0
-3 -76 0
-16 -76 0
-72 -76 0
-21 -76 0
-3 -16 0
-3 -72 0
-3 -21 0
-16 -72 0
-16 -21 0
-21 -72 0
